language ESSENCE' 1.0

letting C_FunctionND be
        [[0, 0, 0, 0, 0, 0, 0, 0, 0, 0, 0, 0, 0, 0; int(0..13)], [1, 0, 0, 0, 0, 0, 0, 0, 0, 0, 0, 0, 0, 0; int(0..13)],
         [1, 0, 0, 0, 0, 0, 0, 0, 0, 0, 0, 0, 0, 0; int(0..13)], [1, 0, 0, 0, 0, 0, 0, 0, 0, 0, 0, 0, 0, 0; int(0..13)],
         [1, 0, 0, 0, 0, 0, 0, 0, 0, 0, 0, 0, 0, 0; int(0..13)], [1, 0, 0, 0, 0, 0, 0, 0, 0, 0, 0, 0, 0, 0; int(0..13)],
         [1, 0, 0, 0, 0, 0, 0, 0, 0, 0, 0, 0, 0, 0; int(0..13)], [1, 0, 0, 0, 0, 0, 0, 0, 0, 0, 0, 0, 0, 0; int(0..13)],
         [1, 0, 0, 0, 0, 0, 0, 0, 0, 0, 0, 0, 0, 0; int(0..13)], [1, 0, 0, 0, 0, 0, 0, 0, 0, 0, 0, 0, 0, 0; int(0..13)],
         [1, 0, 0, 0, 0, 0, 0, 0, 0, 0, 0, 0, 0, 0; int(0..13)], [1, 0, 0, 0, 0, 0, 0, 0, 0, 0, 0, 0, 0, 0; int(0..13)],
         [1, 0, 0, 0, 0, 0, 0, 0, 0, 0, 0, 0, 0, 0; int(0..13)], [0, 1, 1, 1, 1, 1, 1, 1, 1, 1, 1, 1, 1, 0; int(0..13)];
             int(0..13)]
$ Visualisation for C_FunctionND
$ 0 0 0 0 0 0 0 0 0 0 0 0 0 0
$ 1 0 0 0 0 0 0 0 0 0 0 0 0 0
$ 1 0 0 0 0 0 0 0 0 0 0 0 0 0
$ 1 0 0 0 0 0 0 0 0 0 0 0 0 0
$ 1 0 0 0 0 0 0 0 0 0 0 0 0 0
$ 1 0 0 0 0 0 0 0 0 0 0 0 0 0
$ 1 0 0 0 0 0 0 0 0 0 0 0 0 0
$ 1 0 0 0 0 0 0 0 0 0 0 0 0 0
$ 1 0 0 0 0 0 0 0 0 0 0 0 0 0
$ 1 0 0 0 0 0 0 0 0 0 0 0 0 0
$ 1 0 0 0 0 0 0 0 0 0 0 0 0 0
$ 1 0 0 0 0 0 0 0 0 0 0 0 0 0
$ 1 0 0 0 0 0 0 0 0 0 0 0 0 0
$ 0 1 1 1 1 1 1 1 1 1 1 1 1 0

letting J_FunctionND be
        [[0, 1, 2, 3, 4, 5, 6, 7, 8, 9, 10, 11, 12, 13; int(0..13)],
         [1, 1, 13, 13, 13, 13, 13, 13, 13, 13, 13, 13, 13, 13; int(0..13)],
         [2, 13, 2, 13, 13, 13, 13, 13, 13, 13, 13, 13, 13, 13; int(0..13)],
         [3, 13, 13, 3, 13, 13, 13, 13, 13, 13, 13, 13, 13, 13; int(0..13)],
         [4, 13, 13, 13, 4, 13, 13, 13, 13, 13, 13, 13, 13, 13; int(0..13)],
         [5, 13, 13, 13, 13, 5, 13, 13, 13, 13, 13, 13, 13, 13; int(0..13)],
         [6, 13, 13, 13, 13, 13, 6, 13, 13, 13, 13, 13, 13, 13; int(0..13)],
         [7, 13, 13, 13, 13, 13, 13, 7, 13, 13, 13, 13, 13, 13; int(0..13)],
         [8, 13, 13, 13, 13, 13, 13, 13, 8, 13, 13, 13, 13, 13; int(0..13)],
         [9, 13, 13, 13, 13, 13, 13, 13, 13, 9, 13, 13, 13, 13; int(0..13)],
         [10, 13, 13, 13, 13, 13, 13, 13, 13, 13, 10, 13, 13, 13; int(0..13)],
         [11, 13, 13, 13, 13, 13, 13, 13, 13, 13, 13, 11, 13, 13; int(0..13)],
         [12, 13, 13, 13, 13, 13, 13, 13, 13, 13, 13, 13, 12, 13; int(0..13)],
         [13, 13, 13, 13, 13, 13, 13, 13, 13, 13, 13, 13, 13, 13; int(0..13)];
             int(0..13)]
$ Visualisation for J_FunctionND
$  0  1  2  3  4  5  6  7  8  9 10 11 12 13
$  1  1 13 13 13 13 13 13 13 13 13 13 13 13
$  2 13  2 13 13 13 13 13 13 13 13 13 13 13
$  3 13 13  3 13 13 13 13 13 13 13 13 13 13
$  4 13 13 13  4 13 13 13 13 13 13 13 13 13
$  5 13 13 13 13  5 13 13 13 13 13 13 13 13
$  6 13 13 13 13 13  6 13 13 13 13 13 13 13
$  7 13 13 13 13 13 13  7 13 13 13 13 13 13
$  8 13 13 13 13 13 13 13  8 13 13 13 13 13
$  9 13 13 13 13 13 13 13 13  9 13 13 13 13
$ 10 13 13 13 13 13 13 13 13 13 10 13 13 13
$ 11 13 13 13 13 13 13 13 13 13 13 11 13 13
$ 12 13 13 13 13 13 13 13 13 13 13 13 12 13
$ 13 13 13 13 13 13 13 13 13 13 13 13 13 13

letting M_FunctionND be
        [[0, 0, 0, 0, 0, 0, 0, 0, 0, 0, 0, 0, 0, 0; int(0..13)], [0, 1, 0, 0, 0, 0, 0, 0, 0, 0, 0, 0, 0, 1; int(0..13)],
         [0, 0, 2, 0, 0, 0, 0, 0, 0, 0, 0, 0, 0, 2; int(0..13)], [0, 0, 0, 3, 0, 0, 0, 0, 0, 0, 0, 0, 0, 3; int(0..13)],
         [0, 0, 0, 0, 4, 0, 0, 0, 0, 0, 0, 0, 0, 4; int(0..13)], [0, 0, 0, 0, 0, 5, 0, 0, 0, 0, 0, 0, 0, 5; int(0..13)],
         [0, 0, 0, 0, 0, 0, 6, 0, 0, 0, 0, 0, 0, 6; int(0..13)], [0, 0, 0, 0, 0, 0, 0, 7, 0, 0, 0, 0, 0, 7; int(0..13)],
         [0, 0, 0, 0, 0, 0, 0, 0, 8, 0, 0, 0, 0, 8; int(0..13)], [0, 0, 0, 0, 0, 0, 0, 0, 0, 9, 0, 0, 0, 9; int(0..13)],
         [0, 0, 0, 0, 0, 0, 0, 0, 0, 0, 10, 0, 0, 10; int(0..13)],
         [0, 0, 0, 0, 0, 0, 0, 0, 0, 0, 0, 11, 0, 11; int(0..13)],
         [0, 0, 0, 0, 0, 0, 0, 0, 0, 0, 0, 0, 12, 12; int(0..13)],
         [0, 1, 2, 3, 4, 5, 6, 7, 8, 9, 10, 11, 12, 13; int(0..13)];
             int(0..13)]
$ Visualisation for M_FunctionND
$  0  0  0  0  0  0  0  0  0  0  0  0  0  0
$  0  1  0  0  0  0  0  0  0  0  0  0  0  1
$  0  0  2  0  0  0  0  0  0  0  0  0  0  2
$  0  0  0  3  0  0  0  0  0  0  0  0  0  3
$  0  0  0  0  4  0  0  0  0  0  0  0  0  4
$  0  0  0  0  0  5  0  0  0  0  0  0  0  5
$  0  0  0  0  0  0  6  0  0  0  0  0  0  6
$  0  0  0  0  0  0  0  7  0  0  0  0  0  7
$  0  0  0  0  0  0  0  0  8  0  0  0  0  8
$  0  0  0  0  0  0  0  0  0  9  0  0  0  9
$  0  0  0  0  0  0  0  0  0  0 10  0  0 10
$  0  0  0  0  0  0  0  0  0  0  0 11  0 11
$  0  0  0  0  0  0  0  0  0  0  0  0 12 12
$  0  1  2  3  4  5  6  7  8  9 10 11 12 13

letting R_Function1D be [0, 1, 1, 1, 1, 1, 1, 1, 1, 1, 1, 1, 1, 2; int(0..13)]
